
Gurobi 8.1.1 (linux64, Python) logging started Sun May  3 23:59:33 2020

Academic license - for non-commercial use only

Gurobi 8.1.1 (linux64, Python) logging started Mon May  4 00:01:33 2020

Academic license - for non-commercial use only
